words_hard_train/7384.qaiger
aag 131 24 0 1 107
2
4
8
12
14
18
30
32
46
48
62
64
78
80
94
110
112
116
120
124
128
132
234
246
262
6 3 5
10 7 8
16 13 15
20 16 19
22 17 18
24 21 23
26 10 24
28 27 23
34 31 33
36 34 19
38 35 18
40 37 39
42 29 40
44 43 39
50 47 49
52 50 19
54 51 18
56 53 55
58 45 56
60 59 55
66 63 65
68 66 19
70 67 18
72 69 71
74 61 72
76 75 71
82 79 81
84 82 19
86 83 18
88 85 87
90 77 88
92 91 87
96 9 95
98 96 19
100 97 18
102 99 101
104 92 103
106 93 102
108 105 107
114 111 113
118 114 117
122 118 121
126 122 125
130 126 129
134 131 132
136 108 135
138 130 133
140 137 139
142 44 57
144 143 59
146 119 120
148 147 123
150 144 148
152 110 112
154 11 25
156 153 155
158 110 113
160 11 24
162 159 161
164 6 9
166 163 165
168 157 167
170 169 27
172 171 115
174 28 41
176 175 43
178 176 117
180 172 179
182 181 119
184 177 116
186 145 149
188 185 187
190 182 188
192 151 191
194 60 73
196 195 75
198 123 124
200 199 127
202 197 201
204 193 203
206 196 200
208 205 207
210 76 89
212 211 91
214 127 128
216 215 131
218 212 216
220 208 219
222 213 217
224 221 223
226 135 139
228 109 227
230 224 229
232 140 231
236 234 19
238 236 106
240 237 101
242 240 107
244 239 243
248 245 246
250 232 249
252 244 247
254 251 253
256 230 138
258 254 257
260 249 256
262 259 261
i0 2 y2[0]
i1 1 x1[0]
i2 2 y2[6]
i3 2 y2[1]
i4 1 x1[1]
i5 2 y2[7]
i6 2 y2[2]
i7 1 x1[2]
i8 2 y2[3]
i9 1 x1[3]
i10 2 y2[4]
i11 1 x1[4]
i12 2 y2[5]
i13 1 x1[5]
i14 1 x1[6]
i15 1 x2[0]
i16 1 x2[1]
i17 1 x2[2]
i18 1 x2[3]
i19 1 x2[4]
i20 1 x2[5]
i21 1 x2[6]
i22 1 x1[7]
i23 1 x2[7]
o0 bv[0]
c
simplified
  <
    add
      or
        1 x1
        2 y2
      >> 6
        2 y2
    1 x2
