words_hard_train/7384.qaiger.qdimacs
p cnf 131 322
a 32 64 2 66 58 7 40 47 16 117 55 24 56 123 60 62 0
e 1 3 4 5 6 8 9 10 11 12 13 14 15 17 18 19 20 21 22 23 25 26 27 28 29 30 31 33 34 35 36 37 38 39 41 42 43 44 45 46 48 49 50 51 52 53 54 57 59 61 63 65 67 68 69 70 71 72 73 74 75 76 77 78 79 80 81 82 83 84 85 86 87 88 89 90 91 92 93 94 95 96 97 98 99 100 101 102 103 104 105 106 107 108 109 110 111 112 113 114 115 116 118 119 120 121 122 124 125 126 127 128 129 130 131 0
1 2 3 0
-1 -3 0
-2 -3 0
3 -4 5 0
-3 -5 0
4 -5 0
6 7 8 0
-6 -8 0
-7 -8 0
-8 9 10 0
8 -10 0
-9 -10 0
8 -9 11 0
-8 -11 0
9 -11 0
10 11 12 0
-10 -12 0
-11 -12 0
-5 -12 13 0
5 -13 0
12 -13 0
13 11 14 0
-13 -14 0
-11 -14 0
15 16 17 0
-15 -17 0
-16 -17 0
-17 9 18 0
17 -18 0
-9 -18 0
17 -9 19 0
-17 -19 0
9 -19 0
18 19 20 0
-18 -20 0
-19 -20 0
14 -20 21 0
-14 -21 0
20 -21 0
21 19 22 0
-21 -22 0
-19 -22 0
23 24 25 0
-23 -25 0
-24 -25 0
-25 9 26 0
25 -26 0
-9 -26 0
25 -9 27 0
-25 -27 0
9 -27 0
26 27 28 0
-26 -28 0
-27 -28 0
22 -28 29 0
-22 -29 0
28 -29 0
29 27 30 0
-29 -30 0
-27 -30 0
31 32 33 0
-31 -33 0
-32 -33 0
-33 9 34 0
33 -34 0
-9 -34 0
33 -9 35 0
-33 -35 0
9 -35 0
34 35 36 0
-34 -36 0
-35 -36 0
30 -36 37 0
-30 -37 0
36 -37 0
37 35 38 0
-37 -38 0
-35 -38 0
39 40 41 0
-39 -41 0
-40 -41 0
-41 9 42 0
41 -42 0
-9 -42 0
41 -9 43 0
-41 -43 0
9 -43 0
42 43 44 0
-42 -44 0
-43 -44 0
38 -44 45 0
-38 -45 0
44 -45 0
45 43 46 0
-45 -46 0
-43 -46 0
4 47 48 0
-4 -48 0
-47 -48 0
-48 9 49 0
48 -49 0
-9 -49 0
48 -9 50 0
-48 -50 0
9 -50 0
49 50 51 0
-49 -51 0
-50 -51 0
-46 51 52 0
46 -52 0
-51 -52 0
46 -51 53 0
-46 -53 0
51 -53 0
52 53 54 0
-52 -54 0
-53 -54 0
55 56 57 0
-55 -57 0
-56 -57 0
-57 58 59 0
57 -59 0
-58 -59 0
-59 60 61 0
59 -61 0
-60 -61 0
-61 62 63 0
61 -63 0
-62 -63 0
-63 64 65 0
63 -65 0
-64 -65 0
65 -66 67 0
-65 -67 0
66 -67 0
-54 67 68 0
54 -68 0
-67 -68 0
-65 66 69 0
65 -69 0
-66 -69 0
68 69 70 0
-68 -70 0
-69 -70 0
-22 28 71 0
22 -71 0
-28 -71 0
71 29 72 0
-71 -72 0
-29 -72 0
59 -60 73 0
-59 -73 0
60 -73 0
73 61 74 0
-73 -74 0
-61 -74 0
-72 -74 75 0
72 -75 0
74 -75 0
-55 -56 76 0
55 -76 0
56 -76 0
5 12 77 0
-5 -77 0
-12 -77 0
76 77 78 0
-76 -78 0
-77 -78 0
-55 56 79 0
55 -79 0
-56 -79 0
5 -12 80 0
-5 -80 0
12 -80 0
79 80 81 0
-79 -81 0
-80 -81 0
-3 4 82 0
3 -82 0
-4 -82 0
81 82 83 0
-81 -83 0
-82 -83 0
78 83 84 0
-78 -84 0
-83 -84 0
84 13 85 0
-84 -85 0
-13 -85 0
85 57 86 0
-85 -86 0
-57 -86 0
-14 20 87 0
14 -87 0
-20 -87 0
87 21 88 0
-87 -88 0
-21 -88 0
-88 58 89 0
88 -89 0
-58 -89 0
-86 89 90 0
86 -90 0
-89 -90 0
90 59 91 0
-90 -91 0
-59 -91 0
88 -58 92 0
-88 -92 0
58 -92 0
72 74 93 0
-72 -93 0
-74 -93 0
92 93 94 0
-92 -94 0
-93 -94 0
-91 -94 95 0
91 -95 0
94 -95 0
75 95 96 0
-75 -96 0
-95 -96 0
-30 36 97 0
30 -97 0
-36 -97 0
97 37 98 0
-97 -98 0
-37 -98 0
61 -62 99 0
-61 -99 0
62 -99 0
99 63 100 0
-99 -100 0
-63 -100 0
98 100 101 0
-98 -101 0
-100 -101 0
96 101 102 0
-96 -102 0
-101 -102 0
-98 -100 103 0
98 -103 0
100 -103 0
102 103 104 0
-102 -104 0
-103 -104 0
-38 44 105 0
38 -105 0
-44 -105 0
105 45 106 0
-105 -106 0
-45 -106 0
63 -64 107 0
-63 -107 0
64 -107 0
107 65 108 0
-107 -108 0
-65 -108 0
-106 -108 109 0
106 -109 0
108 -109 0
-104 109 110 0
104 -110 0
-109 -110 0
106 108 111 0
-106 -111 0
-108 -111 0
110 111 112 0
-110 -112 0
-111 -112 0
67 69 113 0
-67 -113 0
-69 -113 0
54 113 114 0
-54 -114 0
-113 -114 0
-112 114 115 0
112 -115 0
-114 -115 0
-70 115 116 0
70 -116 0
-115 -116 0
-117 9 118 0
117 -118 0
-9 -118 0
-118 -53 119 0
118 -119 0
53 -119 0
118 50 120 0
-118 -120 0
-50 -120 0
-120 53 121 0
120 -121 0
-53 -121 0
119 121 122 0
-119 -122 0
-121 -122 0
122 -123 124 0
-122 -124 0
123 -124 0
-116 124 125 0
116 -125 0
-124 -125 0
-122 123 126 0
122 -126 0
-123 -126 0
125 126 127 0
-125 -127 0
-126 -127 0
-115 -69 128 0
115 -128 0
69 -128 0
-127 128 129 0
127 -129 0
-128 -129 0
124 -128 130 0
-124 -130 0
128 -130 0
129 130 131 0
-129 -131 0
-130 -131 0
131 0
